p cnf 7230 17
-5909 -5910 0
-5727 -5729 -5907 0
-5725 -5731 -5905 0
5727 -5908 0
5725 -5906 0
5907 5908 0
5905 5906 0
5903 5904 0
5717 -5904 0
-5717 -5903 0
5729 -5908 0
5731 -5906 0
-5733 -5761 5910 0
5901 5902 0
-5901 -5902 0
5761 -5910 0
5733 -5910 0
